SimulationType                MonteCarlo
NumberOfEquilibrationCycles   4500
NumberOfCycles                9000
PrintEvery                    100
RestartFile		     yes

Forcefield    TraPPE_Corrected                   
CutOffVDW	19
FrameWork 0
FrameWorkName 30.4A
ExternalTemperature 298
ExternalPressure 40516129.0323
Movies yes
WriteMoviesEvery 100

Component 0 MoleculeName             methane
            MoleculeDefinition       TraPPE_Corrected
            TranslationProbability   1
            RotationProbability      1
            SwapProbability          1
            CreateNumberOfMolecules  0
            IdealGasRosenbluthWeight 1
FugacityCoefficient 0.70572
