SimulationType                MonteCarlo
NumberOfEquilibrationCycles   4500
NumberOfCycles                9000
PrintEvery                    100
RestartFile		     yes

Forcefield    TraPPE_Corrected                   
CutOffVDW	19
FrameWork 0
FrameWorkName 15.0A_CH4
ExternalTemperature 298
ExternalPressure 12064516.129
Movies yes
WriteMoviesEvery 100

Component 0 MoleculeName             methane
            MoleculeDefinition       TraPPE_Corrected
            TranslationProbability   1
            RotationProbability      1
            SwapProbability          1
            CreateNumberOfMolecules  0
            IdealGasRosenbluthWeight 1
FugacityCoefficient 0.82401
